Results/Experiment 1 Results/New Benchmark/RES_60/output_p1_0.00_p2_0.00_n_60_00.txt
solutions: 373248 nodes: 678154  modelTime: 169  solveTime: 2390  totalTime: 2567  modelSize: 7853  readTime: 8 matchingSize: 30
